p cnf 10 50
-5 10 7 0
7 1 9 0
7 -6 9 0
9 -2 7 0
-7 4 5 0
2 -3 8 0
-7 -1 -8 0
9 -4 2 0
-4 -5 9 0
5 -6 -1 0
5 7 -4 0
4 9 1 0
8 -10 -2 0
-3 -10 -2 0
1 -6 -5 0
-6 -7 -5 0
4 -9 -7 0
-3 -7 2 0
7 2 5 0
7 8 -6 0
4 3 -2 0
7 8 -1 0
8 9 3 0
-2 -10 4 0
-6 3 7 0
-8 9 10 0
6 -5 -3 0
6 -2 -5 0
6 -9 4 0
5 -10 -3 0
-6 8 -4 0
10 6 -1 0
9 10 -2 0
6 8 -3 0
-1 -6 -2 0
6 -8 4 0
7 9 3 0
6 -10 9 0
8 2 3 0
-5 8 -1 0
-5 -6 1 0
-9 -7 -5 0
-2 -3 4 0
1 -9 7 0
3 -9 -5 0
-8 -2 1 0
4 7 1 0
-10 -2 -8 0
-3 1 -2 0
-1 -3 -5 0
